5 1618.36
300
0 0
  1             35            -56            129
  2             72            -58             73
  3             70            -66            141
  4             45            -40              9
  5             39            -40            93
